(set-option :print-success false)
(set-logic QF_UF)
(declare-sort x72 0)
(declare-sort x26 0)
(declare-fun x61 (x26 x26) x26)
(declare-fun x154 () x26)
(declare-fun x145 () x26)
(declare-fun x3 () x26)
(declare-fun x142 () x26)
(declare-fun x117 (x26 x26) x26)
(declare-fun x109 () x26)
(assert (let ((x121 (x117 x145 x154)) (x49 (x117 x154 x145)) (x18 (x117 x145 x3)) (x73 (x117 x142 x154)) (x12 (x117 x145 x145)) (x156 (x117 x109 x3)) (x90 (x117 x142 x109)) (x135 (x117 x3 x142)) (x65 (x117 x109 x145)) (x111 (x117 x3 x145)) (x31 (x117 x109 x142)) (x116 (x117 x154 x3)) (x38 (x117 x142 x142)) (x62 (x117 x142 x145)) (x54 (x117 x109 x154)) (x84 (x117 x3 x154)) (x21 (x117 x142 x3)) (x36 (x117 x3 x3)) (x71 (x117 x145 x109)) (x107 (x117 x145 x142)) (x147 (x117 x109 x109)) (x78 (x117 x3 x109)) (x14 (x117 x154 x142)) (x6 (x117 x154 x154)) (x93 (x117 x154 x109))) (and (and (and (and (not (= x21 x36)) (and (not (= x156 x21)) (and (and (not (= x116 x156)) (and (not (= x116 x21)) (and (and (not (= x18 x156)) (and (not (= x18 x21)) (not (= x116 x18)))) (not (= x18 x36))))) (not (= x116 x36))))) (not (= x156 x36))) (and (and (and (and (not (= x135 x38)) (and (and (and (not (= x31 x14)) (and (and (and (and (not (= x14 x107)) (not (= x107 x38))) (not (= x31 x107))) (not (= x107 x135))) (not (= x14 x38)))) (not (= x135 x14))) (not (= x38 x31)))) (not (= x135 x31))) (and (and (not (= x65 x111)) (and (and (and (and (not (= x65 x49)) (and (not (= x49 x62)) (and (and (and (not (= x62 x12)) (not (= x49 x12))) (not (= x65 x12))) (not (= x12 x111))))) (not (= x49 x111))) (not (= x65 x62))) (not (= x62 x111)))) (and (not (= x84 x54)) (and (and (and (and (and (and (and (not (= x121 x54)) (and (not (= x73 x121)) (not (= x6 x121)))) (not (= x84 x121))) (not (= x6 x73))) (not (= x54 x6))) (not (= x6 x84))) (not (= x54 x73))) (not (= x73 x84)))))) (and (and (and (not (= x90 x147)) (and (not (= x93 x78)) (and (and (and (and (and (not (= x71 x90)) (not (= x71 x93))) (not (= x71 x147))) (not (= x71 x78))) (not (= x93 x90))) (not (= x147 x93))))) (not (= x90 x78))) (not (= x147 x78))))) (and (and (and (and (not (= x90 x21)) (and (not (= x21 x38)) (and (not (= x38 x90)) (and (and (and (not (= x38 x73)) (and (and (and (not (= x38 x62)) (not (= x62 x73))) (not (= x62 x90))) (not (= x21 x62)))) (not (= x73 x90))) (not (= x73 x21)))))) (and (and (not (= x116 x93)) (and (not (= x14 x116)) (and (not (= x14 x93)) (and (and (and (not (= x6 x14)) (and (not (= x49 x116)) (and (not (= x93 x49)) (and (not (= x14 x49)) (not (= x49 x6)))))) (not (= x6 x93))) (not (= x6 x116)))))) (and (not (= x71 x18)) (and (and (not (= x71 x107)) (and (and (not (= x71 x121)) (and (and (and (and (not (= x12 x121)) (not (= x12 x107))) (not (= x12 x71))) (not (= x12 x18))) (not (= x121 x107)))) (not (= x18 x121)))) (not (= x107 x18)))))) (and (and (and (and (and (and (not (= x54 x31)) (and (not (= x65 x156)) (and (not (= x147 x65)) (and (not (= x65 x54)) (not (= x31 x65)))))) (not (= x54 x147))) (not (= x54 x156))) (not (= x147 x31))) (not (= x156 x31))) (not (= x156 x147)))) (and (and (not (= x135 x36)) (and (and (not (= x84 x36)) (and (not (= x84 x78)) (and (not (= x84 x135)) (and (not (= x111 x36)) (and (and (not (= x84 x111)) (not (= x135 x111))) (not (= x78 x111))))))) (not (= x78 x135)))) (not (= x36 x78)))))))
(assert (let ((x27 (x117 x3 x145)) (x2 (x117 x154 x145)) (x157 (x117 x3 x142)) (x91 (x117 x142 x3)) (x106 (x117 x142 x142)) (x151 (x117 x145 x109)) (x129 (x117 x142 x154)) (x17 (x117 x145 x145)) (x55 (x117 x145 x142)) (x132 (x117 x154 x109)) (x13 (x117 x109 x109)) (x123 (x117 x154 x3)) (x159 (x117 x142 x145)) (x105 (x117 x154 x142)) (x7 (x117 x145 x3)) (x87 (x117 x145 x154)) (x149 (x117 x109 x145)) (x34 (x117 x3 x109)) (x58 (x117 x142 x109)) (x118 (x117 x109 x154)) (x113 (x117 x154 x154)) (x29 (x117 x3 x154)) (x112 (x117 x109 x3)) (x155 (x117 x109 x142)) (x103 (x117 x3 x3))) (let ((x153 (= x113 x142)) (x47 (= x17 x3)) (x147 (= x29 x145)) (x136 (= x142 x129)) (x35 (= x155 x3)) (x96 (= x118 x3)) (x63 (= x87 x3)) (x48 (= x3 x27)) (x83 (= x142 x7)) (x140 (= x55 x142)) (x99 (= x87 x142)) (x108 (= x154 x103)) (x127 (= x106 x154)) (x77 (= x113 x154)) (x141 (= x13 x142)) (x89 (= x109 x106)) (x6 (= x129 x145)) (x95 (= x105 x3)) (x32 (= x149 x109)) (x30 (= x3 x55)) (x92 (= x123 x3)) (x80 (= x154 x118)) (x122 (= x109 x91)) (x25 (= x118 x142)) (x4 (= x3 x103)) (x44 (= x109 x58)) (x40 (= x13 x3)) (x54 (= x145 x106)) (x115 (= x29 x142)) (x125 (= x29 x3)) (x104 (= x34 x109)) (x16 (= x142 x27)) (x84 (= x149 x145)) (x128 (= x2 x142)) (x39 (= x154 x27)) (x152 (= x58 x154)) (x102 (= x109 x123)) (x21 (= x34 x145)) (x150 (= x109 x27)) (x94 (= x157 x142)) (x15 (= x3 x2)) (x69 (= x3 x106)) (x137 (= x142 x155)) (x88 (= x142 x103)) (x75 (= x149 x3)) (x49 (= x2 x145)) (x60 (= x154 x151)) (x51 (= x112 x3)) (x10 (= x7 x3)) (x82 (= x132 x154)) (x100 (= x142 x106)) (x8 (= x105 x142)) (x19 (= x154 x159)) (x23 (= x151 x109)) (x46 (= x154 x91)) (x90 (= x7 x145)) (x59 (= x154 x155)) (x79 (= x142 x112)) (x124 (= x109 x55)) (x33 (= x142 x17)) (x158 (= x142 x123)) (x110 (= x154 x129)) (x101 (= x132 x109)) (x111 (= x145 x159)) (x121 (= x145 x55)) (x14 (= x118 x145)) (x57 (= x109 x105)) (x98 (= x34 x3)) (x93 (= x145 x27)) (x1 (= x109 x13)) (x131 (= x112 x154)) (x42 (= x3 x157)) (x133 (= x151 x3)) (x38 (= x132 x145)) (x85 (= x154 x7)) (x56 (= x132 x142)) (x114 (= x55 x154)) (x11 (= x109 x157)) (x74 (= x58 x142)) (x41 (= x157 x154)) (x62 (= x87 x145)) (x20 (= x105 x154)) (x116 (= x145 x91)) (x78 (= x123 x145)) (x126 (= x154 x123)) (x65 (= x113 x145)) (x28 (= x91 x142)) (x36 (= x145 x103)) (x12 (= x17 x145)) (x86 (= x159 x3)) (x24 (= x109 x87)) (x67 (= x113 x109)) (x76 (= x109 x7)) (x97 (= x112 x109)) (x66 (= x109 x2)) (x73 (= x145 x105)) (x119 (= x154 x2)) (x148 (= x34 x154)) (x144 (= x3 x132)) (x5 (= x159 x142)) (x68 (= x17 x154)) (x146 (= x3 x113)) (x156 (= x145 x112)) (x52 (= x3 x91)) (x135 (= x145 x58)) (x138 (= x13 x154)) (x18 (= x145 x157)) (x22 (= x109 x155)) (x9 (= x154 x87)) (x130 (= x149 x142)) (x143 (= x3 x58)) (x81 (= x109 x103)) (x37 (= x17 x109)) (x53 (= x109 x129)) (x43 (= x129 x3)) (x107 (= x151 x145)) (x71 (= x145 x13)) (x139 (= x142 x151)) (x31 (= x155 x145)) (x50 (= x154 x29)) (x120 (= x159 x109)) (x134 (= x154 x149)) (x45 (= x142 x34)) (x64 (= x118 x109)) (x70 (= x29 x109))) (and (and (or (or (and x81 x81) (or (or (or (and x70 x102) (and x150 x76)) (and x11 x122)) (and x104 x97))) (or (or (or (or (or (or (and x57 x53) (or (and x24 x66) (and x67 x67))) (and x64 x101)) (and x102 x70)) (or (or (or (or (and x37 x37) (and x66 x24)) (and x124 x120)) (and x32 x23)) (and x150 x76))) (or (or (or (and x89 x89) (or (and x124 x120) (and x57 x53))) (and x44 x22)) (and x11 x122))) (or (and x104 x97) (or (and x1 x1) (or (or (and x101 x64) (and x32 x23)) (and x22 x44)))))) (and (and (or (or (or (or (or (or (and x134 x60) (and x80 x82)) (and x59 x152)) (and x138 x138)) (and x148 x131)) (or (or (or (or (or (and x20 x110) (or (and x77 x77) (and x9 x119))) (and x80 x82)) (and x126 x50)) (or (or (or (or (and x119 x9) (and x68 x68)) (and x19 x114)) (and x60 x134)) (and x39 x85))) (or (or (and x59 x152) (or (or (and x19 x114) (and x20 x110)) (and x127 x127))) (and x46 x41)))) (or (and x108 x108) (or (and x148 x131) (or (or (and x50 x126) (and x39 x85)) (and x46 x41))))) (or (or (and x36 x36) (or (and x21 x156) (or (or (and x90 x93) (and x78 x147)) (and x116 x18)))) (or (or (and x21 x156) (or (and x71 x71) (or (and x31 x135) (or (and x14 x38) (and x107 x84))))) (or (or (or (and x90 x93) (or (or (and x121 x111) (or (and x49 x62) (and x12 x12))) (and x84 x107))) (or (and x78 x147) (or (and x38 x14) (or (or (and x49 x62) (and x65 x65)) (and x6 x73))))) (or (or (or (and x54 x54) (or (and x121 x111) (and x6 x73))) (and x135 x31)) (and x116 x18)))))) (or (or (or (and x45 x79) (or (and x141 x141) (or (or (and x25 x56) (and x139 x130)) (and x137 x74)))) (or (or (or (or (or (or (and x99 x128) (and x33 x33)) (and x140 x5)) (and x139 x130)) (and x16 x83)) (or (and x158 x115) (or (and x56 x25) (or (and x8 x136) (or (and x153 x153) (and x99 x128)))))) (or (and x28 x94) (or (or (or (and x8 x136) (and x5 x140)) (and x100 x100)) (and x74 x137))))) (or (and x88 x88) (or (or (or (and x83 x16) (and x115 x158)) (and x28 x94)) (and x45 x79)))))) (or (or (or (or (or (or (or (or (and x15 x63) (and x146 x146)) (and x43 x95)) (and x144 x96)) (and x125 x92)) (or (and x10 x48) (or (and x75 x133) (or (or (and x15 x63) (and x47 x47)) (and x30 x86))))) (or (and x42 x52) (or (and x143 x35) (or (or (and x30 x86) (and x43 x95)) (and x69 x69))))) (or (or (or (and x143 x35) (or (and x133 x75) (and x96 x144))) (and x40 x40)) (and x98 x51))) (or (and x4 x4) (or (and x98 x51) (or (or (and x48 x10) (and x92 x125)) (and x52 x42)))))))))
(assert (let ((x12 (x117 x145 x145)) (x31 (x117 x109 x142)) (x54 (x117 x142 x142)) (x36 (x117 x3 x3)) (x14 (x117 x109 x154)) (x38 (x117 x154 x109)) (x65 (x117 x154 x154)) (x49 (x117 x154 x145)) (x135 (x117 x142 x109)) (x111 (x117 x142 x145)) (x71 (x117 x109 x109)) (x90 (x117 x145 x3)) (x6 (x117 x142 x154)) (x156 (x117 x109 x3)) (x84 (x117 x109 x145)) (x147 (x117 x3 x154)) (x21 (x117 x3 x109)) (x107 (x117 x145 x109)) (x62 (x117 x145 x154)) (x73 (x117 x154 x142)) (x78 (x117 x154 x3)) (x93 (x117 x3 x145)) (x116 (x117 x142 x3)) (x18 (x117 x3 x142)) (x121 (x117 x145 x142))) (and (and (and (or (or (or (not (= x54 x54)) (or (not (= x121 x111)) (not (= x6 x73)))) (not (= x135 x31))) (not (= x18 x116))) (and (or (not (= x93 x90)) (or (not (= x107 x84)) (or (or (not (= x12 x12)) (not (= x49 x62))) (not (= x121 x111))))) (or (or (not (= x38 x14)) (or (or (not (= x65 x65)) (not (= x49 x62))) (not (= x73 x6)))) (not (= x147 x78))))) (or (or (or (or (not (= x107 x84)) (not (= x14 x38))) (not (= x31 x135))) (not (= x71 x71))) (not (= x21 x156)))) (or (not (= x36 x36)) (or (or (not (= x18 x116)) (or (not (= x78 x147)) (not (= x93 x90)))) (not (= x21 x156)))))))
(assert (let ((x121 (x117 x154 x142)) (x31 (x117 x109 x154)) (x73 (x117 x142 x154)) (x90 (x117 x154 x3)) (x84 (x117 x145 x109)) (x156 (x117 x3 x109)) (x36 (not (= x3 (x117 x3 x3)))) (x62 (x117 x154 x145)) (x14 (x117 x142 x109)) (x135 (x117 x109 x142)) (x54 (not (= x142 (x117 x142 x142)))) (x38 (x117 x109 x145)) (x71 (not (= x109 (x117 x109 x109)))) (x116 (x117 x3 x154)) (x78 (x117 x109 x3)) (x93 (x117 x145 x3)) (x111 (x117 x145 x142)) (x49 (x117 x145 x154)) (x21 (x117 x3 x142)) (x6 (x117 x142 x145)) (x65 (not (= (x117 x154 x154) x154))) (x147 (x117 x142 x3)) (x107 (x117 x154 x109)) (x18 (x117 x3 x145)) (x12 (not (= (x117 x145 x145) x145)))) (or (and (and (and (not (= x109 x156)) (and (not (= x142 x21)) (and (not (= x116 x154)) (not (= x145 x18))))) x36) (and x36 (and (and (and (not (= x93 x145)) (not (= x154 x90))) (not (= x147 x142))) (not (= x78 x109))))) (or (and (and (not (= x78 x3)) (and x71 (and (not (= x142 x135)) (and (not (= x38 x145)) (not (= x154 x31)))))) (and (and x71 (and (and (not (= x154 x107)) (not (= x84 x145))) (not (= x14 x142)))) (not (= x3 x156)))) (or (and (and (and (and x54 (and (not (= x6 x145)) (not (= x73 x154)))) (not (= x109 x14))) (not (= x3 x147))) (and (and (not (= x109 x135)) (and x54 (and (not (= x145 x111)) (not (= x154 x121))))) (not (= x21 x3)))) (or (and (and (not (= x3 x18)) (and (not (= x38 x109)) (and (and (not (= x62 x154)) x12) (not (= x6 x142))))) (and (and (not (= x109 x84)) (and (and (not (= x154 x49)) x12) (not (= x111 x142)))) (not (= x3 x93)))) (and (and (not (= x3 x90)) (and (and (not (= x121 x142)) (and x65 (not (= x62 x145)))) (not (= x107 x109)))) (and (not (= x3 x116)) (and (not (= x31 x109)) (and (not (= x142 x73)) (and x65 (not (= x49 x145)))))))))))))
(assert (let ((x129 (x117 x142 x154)) (x29 (x117 x3 x154)) (x87 (x117 x145 x154)) (x34 (x117 x3 x109)) (x159 (x117 x142 x145)) (x113 (x117 x154 x154)) (x91 (x117 x142 x3)) (x7 (x117 x145 x3)) (x2 (x117 x154 x145)) (x103 (x117 x3 x3)) (x55 (x117 x145 x142)) (x112 (x117 x109 x3)) (x132 (x117 x154 x109)) (x17 (x117 x145 x145)) (x105 (x117 x154 x142)) (x118 (x117 x109 x154)) (x149 (x117 x109 x145)) (x155 (x117 x109 x142)) (x58 (x117 x142 x109)) (x151 (x117 x145 x109)) (x13 (x117 x109 x109)) (x123 (x117 x154 x3)) (x27 (x117 x3 x145)) (x106 (x117 x142 x142)) (x157 (x117 x3 x142))) (let ((x79 (= x142 x112)) (x53 (= x109 x129)) (x88 (= x103 x142)) (x49 (= x2 x145)) (x101 (= x109 x132)) (x128 (= x2 x142)) (x20 (= x105 x154)) (x144 (= x132 x3)) (x54 (= x145 x106)) (x59 (= x154 x155)) (x48 (= x3 x27)) (x97 (= x109 x112)) (x152 (= x58 x154)) (x98 (= x3 x34)) (x50 (= x154 x29)) (x56 (= x132 x142)) (x140 (= x55 x142)) (x143 (= x3 x58)) (x16 (= x142 x27)) (x135 (= x145 x58)) (x108 (= x154 x103)) (x33 (= x142 x17)) (x51 (= x112 x3)) (x80 (= x118 x154)) (x46 (= x91 x154)) (x74 (= x142 x58)) (x83 (= x7 x142)) (x146 (= x113 x3)) (x52 (= x3 x91)) (x131 (= x112 x154)) (x85 (= x154 x7)) (x94 (= x157 x142)) (x150 (= x109 x27)) (x147 (= x145 x29)) (x127 (= x154 x106)) (x95 (= x3 x105)) (x38 (= x132 x145)) (x125 (= x3 x29)) (x116 (= x91 x145)) (x21 (= x34 x145)) (x31 (= x145 x155)) (x86 (= x3 x159)) (x23 (= x151 x109)) (x12 (= x145 x17)) (x57 (= x109 x105)) (x141 (= x13 x142)) (x28 (= x91 x142)) (x110 (= x154 x129)) (x47 (= x17 x3)) (x89 (= x106 x109)) (x71 (= x13 x145)) (x39 (= x154 x27)) (x69 (= x3 x106)) (x92 (= x123 x3)) (x66 (= x2 x109)) (x148 (= x154 x34)) (x44 (= x109 x58)) (x9 (= x87 x154)) (x63 (= x87 x3)) (x153 (= x142 x113)) (x137 (= x142 x155)) (x22 (= x109 x155)) (x120 (= x159 x109)) (x68 (= x17 x154)) (x24 (= x109 x87)) (x8 (= x142 x105)) (x115 (= x29 x142)) (x65 (= x145 x113)) (x130 (= x149 x142)) (x104 (= x34 x109)) (x41 (= x157 x154)) (x124 (= x109 x55)) (x64 (= x109 x118)) (x62 (= x145 x87)) (x19 (= x154 x159)) (x96 (= x118 x3)) (x99 (= x142 x87)) (x10 (= x3 x7)) (x158 (= x123 x142)) (x114 (= x154 x55)) (x40 (= x3 x13)) (x107 (= x151 x145)) (x43 (= x129 x3)) (x156 (= x145 x112)) (x45 (= x34 x142)) (x76 (= x7 x109)) (x32 (= x149 x109)) (x119 (= x2 x154)) (x84 (= x145 x149)) (x134 (= x149 x154)) (x75 (= x149 x3)) (x35 (= x155 x3)) (x90 (= x7 x145)) (x93 (= x145 x27)) (x82 (= x132 x154)) (x37 (= x17 x109)) (x14 (= x118 x145)) (x36 (= x145 x103)) (x138 (= x13 x154)) (x42 (= x3 x157)) (x136 (= x129 x142)) (x133 (= x151 x3)) (x5 (= x159 x142)) (x100 (= x142 x106)) (x139 (= x151 x142)) (x102 (= x109 x123)) (x70 (= x29 x109)) (x1 (= x109 x13)) (x4 (= x3 x103)) (x78 (= x145 x123)) (x18 (= x157 x145)) (x122 (= x91 x109)) (x77 (= x154 x113)) (x126 (= x123 x154)) (x67 (= x109 x113)) (x111 (= x159 x145)) (x25 (= x142 x118)) (x11 (= x157 x109)) (x60 (= x151 x154)) (x81 (= x109 x103)) (x121 (= x55 x145)) (x30 (= x3 x55)) (x15 (= x3 x2)) (x6 (= x129 x145)) (x73 (= x105 x145))) (and (and (and (and (or (or (and (not x108) x108) (or (or (or (and (not x126) x50) (and x39 (not x85))) (and (not x46) x41)) (and (not x131) x148))) (or (or (and x131 (not x148)) (or (and (not x138) x138) (or (or (and x80 (not x82)) (and x134 (not x60))) (and (not x152) x59)))) (or (or (or (and x85 (not x39)) (or (and x60 (not x134)) (or (or (and x68 (not x68)) (and (not x119) x9)) (and x114 (not x19))))) (or (and x126 (not x50)) (or (or (or (and x77 (not x77)) (and (not x9) x119)) (and x20 (not x110))) (and x82 (not x80))))) (or (and (not x41) x46) (or (or (or (and (not x114) x19) (and x110 (not x20))) (and (not x127) x127)) (and x152 (not x59))))))) (or (or (or (or (or (or (or (and x111 (not x121)) (and (not x73) x6)) (and x54 (not x54))) (and x135 (not x31))) (and (not x18) x116)) (or (or (or (and x107 (not x84)) (or (and x121 (not x111)) (or (and x12 (not x12)) (and (not x49) x62)))) (and x90 (not x93))) (or (or (and x38 (not x14)) (or (and (not x6) x73) (or (and x65 (not x65)) (and x49 (not x62))))) (and x78 (not x147))))) (or (and x156 (not x21)) (or (or (and (not x135) x31) (or (and x84 (not x107)) (and (not x38) x14))) (and x71 (not x71))))) (or (and (not x36) x36) (or (and x21 (not x156)) (or (or (and (not x78) x147) (and (not x90) x93)) (and x18 (not x116))))))) (or (or (or (and x79 (not x45)) (or (and x141 (not x141)) (or (or (and (not x56) x25) (and (not x139) x130)) (and (not x74) x137)))) (or (or (or (or (and x56 (not x25)) (or (or (and x128 (not x99)) (and x153 (not x153))) (and x8 (not x136)))) (and (not x115) x158)) (or (and (not x16) x83) (or (or (and (not x5) x140) (or (and x99 (not x128)) (and (not x33) x33))) (and x139 (not x130))))) (or (and (not x94) x28) (or (and x74 (not x137)) (or (or (and x136 (not x8)) (and (not x140) x5)) (and x100 (not x100))))))) (or (or (or (or (and x115 (not x158)) (and x16 (not x83))) (and (not x28) x94)) (and (not x79) x45)) (and x88 (not x88))))) (or (or (or (and (not x97) x104) (or (or (and (not x76) x150) (and x70 (not x102))) (and (not x122) x11))) (and (not x81) x81)) (or (or (or (or (or (and (not x64) x101) (or (or (and (not x24) x66) (and x67 (not x67))) (and x57 (not x53)))) (and (not x70) x102)) (or (and x76 (not x150)) (or (and x23 (not x32)) (or (and (not x120) x124) (or (and (not x66) x24) (and (not x37) x37)))))) (or (and x122 (not x11)) (or (or (and x89 (not x89)) (or (and x53 (not x57)) (and x120 (not x124)))) (and x44 (not x22))))) (or (and x97 (not x104)) (or (and (not x1) x1) (or (and x22 (not x44)) (or (and x64 (not x101)) (and (not x23) x32)))))))) (or (or (or (or (or (or (or (and (not x43) x95) (or (and (not x63) x15) (and x146 (not x146)))) (and (not x96) x144)) (and (not x125) x92)) (or (and x10 (not x48)) (or (and (not x75) x133) (or (or (and (not x47) x47) (and x63 (not x15))) (and (not x86) x30))))) (or (and x52 (not x42)) (or (and x143 (not x35)) (or (or (and (not x95) x43) (and x86 (not x30))) (and x69 (not x69)))))) (or (and x51 (not x98)) (or (and (not x40) x40) (or (or (and (not x133) x75) (and x96 (not x144))) (and x35 (not x143)))))) (or (and (not x4) x4) (or (or (and (not x52) x42) (or (and (not x92) x125) (and (not x10) x48))) (and x98 (not x51)))))))))
(assert (let ((x14 (x117 x142 x154)) (x90 (x117 x109 x142)) (x73 (x117 x154 x142)) (x93 (x117 x109 x154)) (x78 (x117 x109 x3)) (x111 (x117 x145 x3)) (x84 (x117 x154 x3)) (x38 (x117 x142 x142)) (x18 (x117 x3 x145)) (x107 (x117 x142 x145)) (x65 (x117 x145 x109)) (x31 (x117 x142 x109)) (x147 (x117 x109 x109)) (x116 (x117 x3 x154)) (x71 (x117 x109 x145)) (x156 (x117 x3 x109)) (x135 (x117 x142 x3)) (x12 (x117 x145 x145)) (x121 (x117 x154 x145)) (x54 (x117 x154 x109)) (x21 (x117 x3 x142)) (x62 (x117 x145 x142)) (x6 (x117 x154 x154)) (x49 (x117 x145 x154)) (x36 (x117 x3 x3))) (and (and (and (and (and (and (and (and (or (or (or (= x12 x142) (or (= x12 x154) (= x12 x145))) (= x109 x12)) (= x12 x3)) (or (= x49 x3) (or (= x109 x49) (or (= x49 x142) (or (= x49 x145) (= x154 x49)))))) (or (or (or (= x62 x142) (or (= x62 x154) (= x145 x62))) (= x109 x62)) (= x3 x62))) (or (or (or (= x142 x65) (or (= x65 x145) (= x65 x154))) (= x65 x109)) (= x65 x3))) (or (= x111 x3) (or (or (= x142 x111) (or (= x154 x111) (= x145 x111))) (= x111 x109)))) (and (or (= x84 x3) (or (= x109 x84) (or (or (= x84 x154) (= x84 x145)) (= x142 x84)))) (and (and (or (or (= x109 x73) (or (= x142 x73) (or (= x73 x154) (= x145 x73)))) (= x3 x73)) (and (or (= x3 x6) (or (= x109 x6) (or (= x142 x6) (or (= x6 x145) (= x6 x154))))) (or (= x121 x3) (or (= x121 x109) (or (= x121 x142) (or (= x121 x145) (= x154 x121))))))) (or (or (= x109 x54) (or (= x142 x54) (or (= x154 x54) (= x145 x54)))) (= x54 x3))))) (and (or (or (or (= x142 x135) (or (= x145 x135) (= x135 x154))) (= x135 x109)) (= x3 x135)) (and (or (= x31 x3) (or (= x109 x31) (or (= x31 x142) (or (= x154 x31) (= x145 x31))))) (and (or (or (= x109 x38) (or (or (= x38 x154) (= x145 x38)) (= x38 x142))) (= x38 x3)) (and (or (or (or (or (= x14 x154) (= x14 x145)) (= x142 x14)) (= x14 x109)) (= x3 x14)) (or (= x3 x107) (or (or (= x107 x142) (or (= x154 x107) (= x107 x145))) (= x109 x107)))))))) (and (and (and (and (or (or (= x109 x93) (or (= x142 x93) (or (= x93 x145) (= x154 x93)))) (= x93 x3)) (or (or (= x109 x71) (or (= x71 x142) (or (= x71 x145) (= x71 x154)))) (= x3 x71))) (or (= x90 x3) (or (= x90 x109) (or (or (= x90 x154) (= x145 x90)) (= x142 x90))))) (or (= x147 x3) (or (or (or (= x147 x154) (= x147 x145)) (= x142 x147)) (= x147 x109)))) (or (= x78 x3) (or (or (= x142 x78) (or (= x78 x145) (= x154 x78))) (= x109 x78))))) (and (and (and (or (or (or (= x142 x21) (or (= x154 x21) (= x145 x21))) (= x109 x21)) (= x3 x21)) (and (or (or (= x109 x18) (or (= x18 x142) (or (= x18 x145) (= x18 x154)))) (= x3 x18)) (or (or (= x109 x116) (or (or (= x116 x145) (= x154 x116)) (= x142 x116))) (= x3 x116)))) (or (= x156 x3) (or (= x109 x156) (or (= x156 x142) (or (= x154 x156) (= x145 x156)))))) (or (= x36 x3) (or (or (or (= x154 x36) (= x36 x145)) (= x36 x142)) (= x109 x36)))))))
(assert (and (and (or (= (x117 (x117 x3 x109) x3) x109) (or (or (= (x117 (x117 x142 x109) x142) x109) (or (= x109 (x117 (x117 x145 x109) x145)) (= (x117 (x117 x154 x109) x154) x109))) (= x109 (x117 (x117 x109 x109) x109)))) (and (and (or (or (or (= (x117 (x117 x142 x145) x142) x145) (or (= (x117 (x117 x154 x145) x154) x145) (= x145 (x117 (x117 x145 x145) x145)))) (= (x117 (x117 x109 x145) x109) x145)) (= (x117 (x117 x3 x145) x3) x145)) (or (or (or (or (= (x117 (x117 x154 x154) x154) x154) (= (x117 (x117 x145 x154) x145) x154)) (= (x117 (x117 x142 x154) x142) x154)) (= x154 (x117 (x117 x109 x154) x109))) (= (x117 (x117 x3 x154) x3) x154))) (or (or (or (or (= x142 (x117 (x117 x154 x142) x154)) (= (x117 (x117 x145 x142) x145) x142)) (= (x117 (x117 x142 x142) x142) x142)) (= x142 (x117 (x117 x109 x142) x109))) (= x142 (x117 (x117 x3 x142) x3))))) (or (or (= x3 (x117 (x117 x109 x3) x109)) (or (= (x117 (x117 x142 x3) x142) x3) (or (= (x117 (x117 x154 x3) x154) x3) (= x3 (x117 (x117 x145 x3) x145))))) (= (x117 (x117 x3 x3) x3) x3))))
(assert (let ((x116 (x117 x154 x3)) (x68 (x117 x3 x154)) (x8 (x117 x3 x109)) (x76 (x117 x3 x3)) (x111 (x117 x145 x109)) (x121 (x117 x145 x3)) (x123 (x117 x142 x142)) (x54 (x117 x142 x145)) (x62 (x117 x145 x154)) (x78 (x117 x154 x142)) (x49 (x117 x145 x145)) (x18 (x117 x154 x109)) (x65 (x117 x145 x142)) (x84 (x117 x109 x145)) (x128 (x117 x109 x109)) (x99 (x117 x109 x3)) (x106 (x117 x109 x142)) (x127 (x117 x3 x142)) (x19 (x117 x142 x3)) (x73 (x117 x154 x145)) (x107 (x117 x3 x145)) (x17 (x117 x109 x154)) (x147 (x117 x154 x154)) (x29 (x117 x142 x109)) (x36 (x117 x142 x154))) (let ((x149 (= x109 x147)) (x24 (= x3 x29)) (x152 (= x109 x123)) (x27 (= x3 x62)) (x71 (= x62 x145)) (x48 (= x107 x3)) (x146 (= x116 x142)) (x105 (= x145 x78)) (x58 (= x54 x142)) (x50 (= x17 x145)) (x144 (= x116 x109)) (x104 (= x154 x76)) (x64 (= x145 x99)) (x86 (= x19 x142)) (x103 (= x84 x154)) (x59 (= x109 x78)) (x94 (= x109 x29)) (x75 (= x109 x127)) (x67 (= x3 x128)) (x30 (= x142 x99)) (x136 (= x154 x128)) (x20 (= x154 x123)) (x66 (= x3 x18)) (x35 (= x109 x19)) (x110 (= x78 x154)) (x140 (= x29 x154)) (x150 (= x154 x8)) (x102 (= x154 x116)) (x56 (= x18 x142)) (x156 (= x147 x154)) (x41 (= x111 x145)) (x23 (= x19 x145)) (x55 (= x142 x147)) (x158 (= x18 x109)) (x16 (= x17 x109)) (x96 (= x121 x109)) (x138 (= x36 x3)) (x126 (= x145 x106)) (x77 (= x65 x145)) (x1 (= x154 x127)) (x148 (= x29 x145)) (x122 (= x99 x154)) (x12 (= x145 x49)) (x44 (= x68 x154)) (x51 (= x99 x3)) (x70 (= x121 x154)) (x101 (= x145 x76)) (x9 (= x145 x54)) (x80 (= x109 x36)) (x10 (= x68 x3)) (x34 (= x78 x3)) (x11 (= x154 x19)) (x91 (= x142 x65)) (x39 (= x123 x3)) (x139 (= x142 x106)) (x74 (= x128 x142)) (x28 (= x109 x128)) (x135 (= x73 x145)) (x115 (= x109 x111)) (x137 (= x29 x142)) (x93 (= x147 x145)) (x53 (= x127 x145)) (x157 (= x78 x142)) (x22 (= x107 x154)) (x113 (= x36 x145)) (x2 (= x62 x142)) (x131 (= x145 x128)) (x130 (= x17 x142)) (x14 (= x49 x142)) (x52 (= x116 x3)) (x112 (= x65 x3)) (x40 (= x109 x76)) (x38 (= x109 x49)) (x25 (= x111 x142)) (x120 (= x145 x107)) (x141 (= x84 x109)) (x81 (= x142 x68)) (x57 (= x8 x145)) (x21 (= x154 x62)) (x46 (= x145 x18)) (x108 (= x17 x154)) (x83 (= x109 x106)) (x87 (= x142 x73)) (x100 (= x142 x84)) (x69 (= x68 x109)) (x88 (= x106 x3)) (x31 (= x3 x49)) (x124 (= x145 x68)) (x45 (= x3 x84)) (x15 (= x8 x142)) (x98 (= x3 x19)) (x95 (= x109 x107)) (x118 (= x154 x36)) (x63 (= x142 x121)) (x132 (= x54 x154)) (x129 (= x123 x145)) (x42 (= x121 x3)) (x114 (= x65 x154)) (x60 (= x54 x109)) (x6 (= x154 x49)) (x32 (= x116 x145)) (x82 (= x65 x109)) (x7 (= x3 x73)) (x89 (= x145 x121)) (x134 (= x123 x142)) (x79 (= x3 x17)) (x33 (= x154 x106)) (x153 (= x111 x154)) (x133 (= x8 x109)) (x4 (= x3 x76)) (x92 (= x3 x8)) (x43 (= x76 x142)) (x159 (= x109 x73)) (x97 (= x142 x107)) (x47 (= x142 x127)) (x143 (= x109 x99)) (x90 (= x154 x73)) (x155 (= x36 x142)) (x119 (= x147 x3)) (x125 (= x3 x127)) (x13 (= x54 x3)) (x85 (= x145 x84)) (x37 (= x111 x3)) (x5 (= x18 x154)) (x151 (= x62 x109))) (and (and (and (and (and (and (and (or (or (or x60 (or x159 x38)) x141) x95) (or (or (or x82 (or x151 x38)) x115) x96)) (and (and (or (or x25 (or (or x2 x14) x91)) x63) (or (or x100 (or (or x14 x87) x58)) x97)) (and (and (or x70 (or x153 (or (or x6 x21) x114))) (or (or (or (or x6 x90) x132) x103) x22)) (and (or (or x85 (or x9 (or x135 x12))) x120) (or (or x41 (or (or x71 x12) x77)) x89))))) (and (or (or (or x112 (or x31 x27)) x37) x42) (or (or x45 (or (or x7 x31) x13)) x48))) (and (and (or (or x66 (or x34 (or x119 x7))) x52) (or (or (or (or x27 x119) x138) x79) x10)) (and (and (and (or (or x130 (or (or x55 x2) x155)) x81) (or (or (or (or x55 x87) x157) x56) x146)) (and (and (or (or (or x113 (or x71 x93)) x50) x124) (or (or (or x105 (or x135 x93)) x46) x32)) (and (or x102 (or x5 (or x110 (or x156 x90)))) (or x44 (or (or x118 (or x156 x21)) x108))))) (and (or x144 (or x158 (or (or x159 x149) x59))) (or x69 (or (or (or x149 x151) x80) x16)))))) (and (and (or (or (or x39 (or x34 x112)) x88) x125) (or (or x24 (or (or x138 x13) x39)) x98)) (and (and (and (and (or (or x33 (or (or x114 x110) x20)) x1) (or (or (or x20 (or x132 x118)) x140) x11)) (and (or x53 (or (or (or x77 x105) x129) x126)) (or (or (or (or x113 x9) x129) x148) x23))) (and (or x86 (or (or (or x155 x58) x134) x137)) (or (or x139 (or (or x91 x157) x134)) x47))) (and (or (or (or (or x82 x59) x152) x83) x75) (or (or (or x152 (or x60 x80)) x94) x35))))) (and (and (or (or (or x88 (or x79 x45)) x67) x51) (or x92 (or x67 (or (or x37 x66) x24)))) (and (and (and (or x30 (or x74 (or x139 (or x130 x100)))) (or (or (or x137 (or x25 x56)) x74) x15)) (and (and (or x122 (or x136 (or (or x103 x108) x33))) (or (or x136 (or x140 (or x5 x153))) x150)) (and (or x64 (or x131 (or x126 (or x85 x50)))) (or x57 (or (or x148 (or x41 x46)) x131))))) (and (or (or (or x83 (or x16 x141)) x28) x143) (or x133 (or x28 (or x94 (or x115 x158)))))))) (and (and (or x4 (or (or (or x52 x42) x98) x51)) (or x4 (or x92 (or (or x48 x10) x125)))) (and (and (or (or (or (or x95 x69) x75) x133) x40) (or x40 (or x143 (or (or x96 x144) x35)))) (and (and (or x43 (or (or (or x146 x63) x86) x30)) (or (or (or (or x81 x97) x47) x15) x43)) (and (and (or x101 (or (or (or x89 x32) x23) x64)) (or x101 (or (or x53 (or x124 x120)) x57))) (and (or (or (or (or x102 x70) x11) x122) x104) (or (or x150 (or x1 (or x22 x44))) x104))))))))))
(assert (and (and (not (= x142 x3)) (and (not (= x109 x142)) (and (and (not (= x109 x154)) (and (not (= x142 x154)) (and (and (and (not (= x154 x145)) (not (= x142 x145))) (not (= x109 x145))) (not (= x145 x3))))) (not (= x154 x3))))) (not (= x109 x3))))
(assert (and (and (and (or (= (x117 x3 (x117 x142 x3)) x142) (or (= x142 (x117 x109 (x117 x142 x109))) (or (or (= (x117 x145 (x117 x142 x145)) x142) (= (x117 x154 (x117 x142 x154)) x142)) (= x142 (x117 x142 (x117 x142 x142)))))) (and (or (or (or (= (x117 x142 (x117 x154 x142)) x154) (or (= (x117 x145 (x117 x154 x145)) x154) (= (x117 x154 (x117 x154 x154)) x154))) (= x154 (x117 x109 (x117 x154 x109)))) (= x154 (x117 x3 (x117 x154 x3)))) (or (= x145 (x117 x3 (x117 x145 x3))) (or (or (= (x117 x142 (x117 x145 x142)) x145) (or (= x145 (x117 x145 (x117 x145 x145))) (= x145 (x117 x154 (x117 x145 x154))))) (= (x117 x109 (x117 x145 x109)) x145))))) (or (or (= x109 (x117 x109 (x117 x109 x109))) (or (= x109 (x117 x142 (x117 x109 x142))) (or (= (x117 x154 (x117 x109 x154)) x109) (= x109 (x117 x145 (x117 x109 x145)))))) (= (x117 x3 (x117 x109 x3)) x109))) (or (= x3 (x117 x3 (x117 x3 x3))) (or (= (x117 x109 (x117 x3 x109)) x3) (or (or (= (x117 x154 (x117 x3 x154)) x3) (= x3 (x117 x145 (x117 x3 x145)))) (= (x117 x142 (x117 x3 x142)) x3))))))
(assert (or (or (= x109 (x117 x109 x109)) (or (or (= x145 (x117 x145 x145)) (= (x117 x154 x154) x154)) (= x142 (x117 x142 x142)))) (= x3 (x117 x3 x3))))
(assert (not (and (and (= (x117 x3 x109) x154) (and (= (x117 x3 x142) x142) (and (= x3 (x117 x3 x154)) (and (and (= (x117 x109 x3) x109) (and (= x142 (x117 x109 x109)) (and (and (and (and (= (x117 x142 x3) x154) (and (and (and (and (and (= (x117 x154 x3) x3) (and (and (and (and (= x142 (x117 x154 x145)) (and (and (= x3 (x117 x145 x109)) (and (= x154 (x117 x145 x142)) (and (= x109 (x117 x145 x154)) (= x145 (x117 x145 x145))))) (= (x117 x145 x3) x142))) (= x154 (x117 x154 x154))) (= x145 (x117 x154 x142))) (= x109 (x117 x154 x109)))) (= (x117 x142 x145) x3)) (= (x117 x142 x154) x142)) (= x109 (x117 x142 x142))) (= (x117 x142 x109) x145))) (= (x117 x109 x145) x154)) (= x145 (x117 x109 x154))) (= (x117 x109 x142) x3)))) (= (x117 x3 x145) x109))))) (= x145 (x117 x3 x3)))))
(assert (or (or (and (not (= (x117 x109 (x117 x109 x3)) x3)) (and (and (not (= (x117 x109 (x117 x109 x142)) x142)) (and (not (= (x117 x109 (x117 x109 x145)) x145)) (not (= x154 (x117 x109 (x117 x109 x154)))))) (not (= x109 (x117 x109 (x117 x109 x109)))))) (or (or (and (and (and (and (not (= x145 (x117 x145 (x117 x145 x145)))) (not (= x154 (x117 x145 (x117 x145 x154))))) (not (= (x117 x145 (x117 x145 x142)) x142))) (not (= x109 (x117 x145 (x117 x145 x109))))) (not (= (x117 x145 (x117 x145 x3)) x3))) (and (and (not (= x109 (x117 x154 (x117 x154 x109)))) (and (not (= x142 (x117 x154 (x117 x154 x142)))) (and (not (= x154 (x117 x154 (x117 x154 x154)))) (not (= x145 (x117 x154 (x117 x154 x145))))))) (not (= x3 (x117 x154 (x117 x154 x3)))))) (and (and (and (and (not (= (x117 x142 (x117 x142 x154)) x154)) (not (= (x117 x142 (x117 x142 x145)) x145))) (not (= x142 (x117 x142 (x117 x142 x142))))) (not (= x109 (x117 x142 (x117 x142 x109))))) (not (= x3 (x117 x142 (x117 x142 x3))))))) (and (not (= x3 (x117 x3 (x117 x3 x3)))) (and (not (= (x117 x3 (x117 x3 x109)) x109)) (and (and (not (= x154 (x117 x3 (x117 x3 x154)))) (not (= (x117 x3 (x117 x3 x145)) x145))) (not (= x142 (x117 x3 (x117 x3 x142)))))))))
(assert (or (or (and (not (= (x117 (x117 x109 x3) x109) x3)) (and (not (= x109 (x117 (x117 x109 x109) x109))) (and (and (not (= x145 (x117 (x117 x109 x145) x109))) (not (= (x117 (x117 x109 x154) x109) x154))) (not (= (x117 (x117 x109 x142) x109) x142))))) (or (and (not (= x3 (x117 (x117 x142 x3) x142))) (and (not (= x109 (x117 (x117 x142 x109) x142))) (and (and (not (= x145 (x117 (x117 x142 x145) x142))) (not (= x154 (x117 (x117 x142 x154) x142)))) (not (= x142 (x117 (x117 x142 x142) x142)))))) (or (and (and (not (= x109 (x117 (x117 x154 x109) x154))) (and (and (not (= (x117 (x117 x154 x154) x154) x154)) (not (= x145 (x117 (x117 x154 x145) x154)))) (not (= (x117 (x117 x154 x142) x154) x142)))) (not (= x3 (x117 (x117 x154 x3) x154)))) (and (and (not (= (x117 (x117 x145 x109) x145) x109)) (and (and (not (= (x117 (x117 x145 x145) x145) x145)) (not (= (x117 (x117 x145 x154) x145) x154))) (not (= x142 (x117 (x117 x145 x142) x145))))) (not (= x3 (x117 (x117 x145 x3) x145))))))) (and (not (= (x117 (x117 x3 x3) x3) x3)) (and (and (not (= x142 (x117 (x117 x3 x142) x3))) (and (not (= x145 (x117 (x117 x3 x145) x3))) (not (= x154 (x117 (x117 x3 x154) x3))))) (not (= (x117 (x117 x3 x109) x3) x109))))))
(assert (not (and (= x145 (x117 x3 x3)) (and (and (and (and (= (x117 x3 x145) x154) (and (and (= x109 (x117 x109 x109)) (and (and (= (x117 x109 x154) x154) (and (= (x117 x109 x145) x142) (and (and (and (and (= x145 (x117 x142 x154)) (and (= (x117 x142 x145) x109) (and (and (and (and (= x142 (x117 x154 x154)) (and (= x145 (x117 x154 x145)) (and (= x142 (x117 x145 x3)) (and (= (x117 x145 x109) x145) (and (and (= x3 (x117 x145 x145)) (= (x117 x145 x154) x109)) (= (x117 x145 x142) x154)))))) (= (x117 x154 x142) x3)) (= (x117 x154 x109) x154)) (= x109 (x117 x154 x3))))) (= x142 (x117 x142 x142))) (= x3 (x117 x142 x109))) (= x154 (x117 x142 x3))))) (= x145 (x117 x109 x142)))) (= (x117 x109 x3) x3))) (= x3 (x117 x3 x154))) (= (x117 x3 x142) x109)) (= (x117 x3 x109) x142)))))
(assert (and (and (= (x117 x145 x3) x142) (and (= x154 (x117 x142 x3)) (= x145 (x117 x3 x3)))) (= x109 (x117 x145 x154))))
(assert (let ((x18 (x117 x145 x3)) (x49 (x117 x154 x145)) (x78 (x117 x3 x109)) (x65 (x117 x109 x145)) (x21 (x117 x142 x3)) (x73 (x117 x142 x154)) (x62 (x117 x142 x145)) (x54 (x117 x109 x154)) (x84 (x117 x3 x154)) (x116 (x117 x154 x3)) (x14 (x117 x154 x142)) (x93 (x117 x154 x109)) (x90 (x117 x142 x109)) (x38 (x117 x142 x142)) (x107 (x117 x145 x142)) (x6 (x117 x154 x154)) (x156 (x117 x109 x3)) (x36 (x117 x3 x3)) (x12 (x117 x145 x145)) (x31 (x117 x109 x142)) (x71 (x117 x145 x109)) (x147 (x117 x109 x109)) (x135 (x117 x3 x142)) (x121 (x117 x145 x154)) (x111 (x117 x3 x145))) (or (and (not (= x36 (x117 x36 x3))) (and (not (= (x117 x156 x109) x156)) (and (not (= x21 (x117 x21 x142))) (and (not (= (x117 x18 x145) x18)) (not (= (x117 x116 x154) x116)))))) (or (or (or (and (not (= x84 (x117 x84 x3))) (and (and (and (not (= x6 (x117 x6 x154))) (not (= x121 (x117 x121 x145)))) (not (= (x117 x73 x142) x73))) (not (= (x117 x54 x109) x54)))) (and (and (and (and (not (= x12 (x117 x12 x145))) (not (= x49 (x117 x49 x154)))) (not (= (x117 x62 x142) x62))) (not (= x65 (x117 x65 x109)))) (not (= x111 (x117 x111 x3))))) (and (not (= x135 (x117 x135 x3))) (and (and (and (not (= (x117 x14 x154) x14)) (not (= x107 (x117 x107 x145)))) (not (= x38 (x117 x38 x142)))) (not (= (x117 x31 x109) x31))))) (and (and (and (not (= x90 (x117 x90 x142))) (and (not (= (x117 x93 x154) x93)) (not (= x71 (x117 x71 x145))))) (not (= x147 (x117 x147 x109)))) (not (= (x117 x78 x3) x78)))))))
(assert (let ((x65 (x117 x109 x109)) (x111 (x117 x3 x3)) (x62 (x117 x142 x142)) (x49 (x117 x154 x154)) (x12 (x117 x145 x145))) (or (and (not (= x3 x111)) (and (not (= x65 x3)) (and (and (not (= x12 x3)) (not (= x3 x49))) (not (= x3 x62))))) (or (or (and (not (= x142 x111)) (and (and (and (not (= x142 x12)) (not (= x49 x142))) (not (= x142 x62))) (not (= x142 x65)))) (or (and (not (= x111 x154)) (and (and (not (= x62 x154)) (and (not (= x49 x154)) (not (= x154 x12)))) (not (= x65 x154)))) (and (and (and (not (= x145 x62)) (and (not (= x145 x12)) (not (= x49 x145)))) (not (= x65 x145))) (not (= x145 x111))))) (and (not (= x109 x111)) (and (not (= x65 x109)) (and (not (= x109 x62)) (and (not (= x12 x109)) (not (= x109 x49))))))))))
(check-sat)
(exit)
